\ENCODING=ISO-8859-1
\Problem name: nSARPLazy

Maximize
 obj1: 0.90168 u(3,5) + 2.33964 u(3,9) - 1.98068 u(3,10) + 2.90176 u(3,14)
       + 6.34992 u(3,18) + 3.81298 u(4,3) - 1.90482 u(4,5) + 3.28766 u(4,9)
       - 5.4091 u(4,10) + 1.4219 u(4,14) + 3.63586 u(5,3) + 3.17218 u(5,4)
       + 3.19702 u(5,9) + 5.69482 u(5,10) + 5.92758 u(5,14) + 9.36838 u(5,18)
       + 6.1627 u(9,3) + 7.4277 u(9,4) + 1.50382 u(9,5) - 2.1403 u(9,10)
       + 4.94002 u(9,14) + 7.67518 u(9,18) - 9.22208 u(10,3) - 9.82376 u(10,4)
       - 3.67356 u(10,5) - 9.81548 u(10,9) - 7.08032 u(10,14) - 2.47204 u(14,3)
       - 2.7554 u(14,4) - 3.4408 u(14,5) - 2.73516 u(14,9) - 7.08032 u(14,10)
       - 3.71496 u(16,4) - 2.94676 u(16,5) - 3.61376 u(16,9) - 6.58076 u(16,10)
       - 1.41496 u(16,14)
Subject To
 Constraint1_3#0:             u(3,5) + u(3,9) + u(3,10) + u(3,14) + u(3,18)
                               = 1
 Constraint1_4#1:             u(4,3) + u(4,5) + u(4,9) + u(4,10) + u(4,14)  = 1
 Constraint1_5#2:             u(5,3) + u(5,4) + u(5,9) + u(5,10) + u(5,14)
                              + u(5,18)  = 1
 Constraint1_9#3:             u(9,3) + u(9,4) + u(9,5) + u(9,10) + u(9,14)
                              + u(9,18)  = 1
 Constraint1_10#4:            u(10,3) + u(10,4) + u(10,5) + u(10,9) + u(10,14)
                              + u(10,18)  = 1
 Constraint1_14#5:            u(14,3) + u(14,4) + u(14,5) + u(14,9) + u(14,10)
                              + u(14,18)  = 1
 Constraint1_16#6:            u(16,4) + u(16,5) + u(16,9) + u(16,10) + u(16,14)
                               = 1
 Constraint1_18#7:            u(3,18) + u(5,18) + u(9,18) + u(10,18) + u(14,18)
                               = 1
 Constraint4_1759909696_1#8:  u(3,5) + u(3,9) + u(3,10) + u(3,14) + u(3,18)
                              - u(4,3) - u(5,3) - u(9,3) - u(10,3) - u(14,3)
                               = 0
 Constraint4_1759909696_1#9:  u(4,3) + u(4,5) + u(4,9) + u(4,10) + u(4,14)
                              - u(5,4) - u(9,4) - u(10,4) - u(14,4) - u(16,4)
                               = 0
 Constraint4_1759909696_1#10: - u(3,5) - u(4,5) + u(5,3) + u(5,4) + u(5,9)
                              + u(5,10) + u(5,14) + u(5,18) - u(9,5) - u(10,5)
                              - u(14,5) - u(16,5)  = 0
 Constraint4_1759909696_1#11: - u(3,9) - u(4,9) - u(5,9) + u(9,3) + u(9,4)
                              + u(9,5) + u(9,10) + u(9,14) + u(9,18) - u(10,9)
                              - u(14,9) - u(16,9)  = 0
 Constraint4_1759909696_1#12: - u(3,10) - u(4,10) - u(5,10) - u(9,10) + u(10,3)
                              + u(10,4) + u(10,5) + u(10,9) + u(10,14)
                              + u(10,18) - u(14,10) - u(16,10)  = 0
 Constraint4_1759909696_1#13: - u(3,14) - u(4,14) - u(5,14) - u(9,14)
                              - u(10,14) + u(14,3) + u(14,4) + u(14,5)
                              + u(14,9) + u(14,10) + u(14,18) - u(16,14)  = 0
 Constraint8_5#14:            b(5) - b(10) <= 0
 Constraint8_9#15:            b(9) - b(14) <= 0
 Constraint9_3_5#16:          38 u(3,5) + b(3) - b(5) <= 37.4113821138211
 Constraint9_3_9#17:          38 u(3,9) + b(3) - b(9) <= 37.4876260162602
 Constraint9_3_10#18:         38 u(3,10) + b(3) - b(10) <= 37.2585528455285
 Constraint9_3_14#19:         38 u(3,14) + b(3) - b(14) <= 37.5174308943089
 Constraint9_3_18#20:         38 u(3,18) + b(3) - b(18) <= 37.7002601626016
 Constraint9_4_3#21:          38 u(4,3) - b(3) + b(4) <= 37.7185528455285
 Constraint9_4_5#22:          38 u(4,5) + b(4) - b(5) <= 37.4153821138211
 Constraint9_4_9#23:          38 u(4,9) + b(4) - b(9) <= 37.6906991869919
 Constraint9_4_10#24:         38 u(4,10) + b(4) - b(10) <= 37.2295772357724
 Constraint9_4_14#25:         38 u(4,14) + b(4) - b(14) <= 37.5917723577236
 Constraint9_5_3#26:          38 u(5,3) - b(3) + b(5) <= 37.6127154471545
 Constraint9_5_4#27:          38 u(5,4) - b(4) + b(5) <= 37.5881300813008
 Constraint9_5_9#28:          38 u(5,9) + b(5) - b(9) <= 37.5894471544715
 Constraint9_5_10#29:         38 u(5,10) + b(5) - b(10) <= 37.7218861788618
 Constraint9_5_14#30:         38 u(5,14) + b(5) - b(14) <= 37.7342276422764
 Constraint9_5_18#31:         38 u(5,18) + b(5) - b(18) <= 37.9166666666667
 Constraint9_9_3#32:          38 u(9,3) - b(3) + b(9) <= 37.8364715447154
 Constraint9_9_4#33:          38 u(9,4) - b(4) + b(9) <= 37.9035447154472
 Constraint9_9_5#34:          38 u(9,5) - b(5) + b(9) <= 37.5894471544715
 Constraint9_9_10#35:         38 u(9,10) + b(9) - b(10) <= 37.3962276422764
 Constraint9_9_14#36:         38 u(9,14) + b(9) - b(14) <= 37.7716422764228
 Constraint9_9_18#37:         38 u(9,18) + b(9) - b(18) <= 37.9166666666667
 Constraint9_10_3#38:         38 u(10,3) - b(3) + b(10) <= 37.4276910569106
 Constraint9_10_4#39:         38 u(10,4) - b(4) + b(10) <= 37.3957886178862
 Constraint9_10_5#40:         38 u(10,5) - b(5) + b(10) <= 37.7218861788618
 Constraint9_10_9#41:         38 u(10,9) - b(9) + b(10) <= 37.3962276422764
 Constraint9_10_14#42:        38 u(10,14) + b(10) - b(14) <= 37.5412520325203
 Constraint9_10_18#43:        38 u(10,18) + b(10) - b(18) <= 37.9166666666667
 Constraint9_14_3#44:         38 u(14,3) - b(3) + b(14) <= 37.785593495935
 Constraint9_14_4#45:         38 u(14,4) - b(4) + b(14) <= 37.7705691056911
 Constraint9_14_5#46:         38 u(14,5) - b(5) + b(14) <= 37.7342276422764
 Constraint9_14_9#47:         38 u(14,9) - b(9) + b(14) <= 37.7716422764228
 Constraint9_14_10#48:        38 u(14,10) - b(10) + b(14) <= 37.5412520325203
 Constraint9_14_18#49:        38 u(14,18) + b(14) - b(18) <= 37.9166666666667
 Constraint9_16_4#50:         38 u(16,4) - b(4) + b(16) <= 37.8030243902439
 Constraint9_16_5#51:         38 u(16,5) - b(5) + b(16) <= 37.843756097561
 Constraint9_16_9#52:         38 u(16,9) - b(9) + b(16) <= 37.8083902439024
 Constraint9_16_10#53:        38 u(16,10) - b(10) + b(16) <= 37.6510731707317
 Constraint9_16_14#54:        38 u(16,14) - b(14) + b(16) <= 37.9249756097561
 Constraint10_0#55:           b(4) - b(16) >= 0.196975609756098
 Constraint10_1#56:           b(3) - b(4) >= 0.281447154471545
 Constraint10_2#57:           - b(3) + b(18) >= 0.299739837398374
 Constraint11_3#58:           b(3) <= 10.4833333333333
 Constraint12_3#59:           b(3) >= 10.4833333333333
 Constraint11_4#60:           b(4) <= 9.78333333333333
 Constraint12_4#61:           b(4) >= 9.78333333333333
 Constraint11_5#62:           b(5) <= 19
 Constraint12_5#63:           b(5) >= 9
 Constraint11_9#64:           b(9) <= 19
 Constraint12_9#65:           b(9) >= 9
 Constraint11_10#66:          b(10) <= 19
 Constraint12_10#67:          b(10) >= 9
 Constraint11_14#68:          b(14) <= 19
 Constraint12_14#69:          b(14) >= 9
 Constraint11_16#70:          b(16) <= 19
 Constraint12_16#71:          b(16) >= 9
 Constraint11_18#72:          b(18) <= 19
 Constraint12_18#73:          b(18) >= 9
 Constraint13_16#74:          - b(16) + b(18) <= 10
Bounds
 0 <= u(3,5) <= 1
 0 <= u(3,9) <= 1
 0 <= u(3,10) <= 1
 0 <= u(3,14) <= 1
 0 <= u(3,18) <= 1
 0 <= u(4,3) <= 1
 0 <= u(4,5) <= 1
 0 <= u(4,9) <= 1
 0 <= u(4,10) <= 1
 0 <= u(4,14) <= 1
 0 <= u(5,3) <= 1
 0 <= u(5,4) <= 1
 0 <= u(5,9) <= 1
 0 <= u(5,10) <= 1
 0 <= u(5,14) <= 1
 0 <= u(5,18) <= 1
 0 <= u(9,3) <= 1
 0 <= u(9,4) <= 1
 0 <= u(9,5) <= 1
 0 <= u(9,10) <= 1
 0 <= u(9,14) <= 1
 0 <= u(9,18) <= 1
 0 <= u(10,3) <= 1
 0 <= u(10,4) <= 1
 0 <= u(10,5) <= 1
 0 <= u(10,9) <= 1
 0 <= u(10,14) <= 1
 0 <= u(10,18) <= 1
 0 <= u(14,3) <= 1
 0 <= u(14,4) <= 1
 0 <= u(14,5) <= 1
 0 <= u(14,9) <= 1
 0 <= u(14,10) <= 1
 0 <= u(14,18) <= 1
 0 <= u(16,4) <= 1
 0 <= u(16,5) <= 1
 0 <= u(16,9) <= 1
 0 <= u(16,10) <= 1
 0 <= u(16,14) <= 1
 9 <= b(3) <= 19
 9 <= b(4) <= 19
 9 <= b(5) <= 19
 9 <= b(9) <= 19
 9 <= b(10) <= 19
 9 <= b(14) <= 19
 9 <= b(16) <= 19
 9 <= b(18) <= 19
Binaries
 u(3,5)  u(3,9)  u(3,10)  u(3,14)  u(3,18)  u(4,3)  u(4,5)  u(4,9)  u(4,10) 
 u(4,14)  u(5,3)  u(5,4)  u(5,9)  u(5,10)  u(5,14)  u(5,18)  u(9,3)  u(9,4) 
 u(9,5)  u(9,10)  u(9,14)  u(9,18)  u(10,3)  u(10,4)  u(10,5)  u(10,9) 
 u(10,14)  u(10,18)  u(14,3)  u(14,4)  u(14,5)  u(14,9)  u(14,10)  u(14,18) 
 u(16,4)  u(16,5)  u(16,9)  u(16,10)  u(16,14) 
End
